0 1852
1 1717
2 1672
3 1589
4 1496
5 1465
6 1441
7 1435
8 1429
9 1336
10 1329
11 1329
12 1297
13 1279
14 1221
15 1216
16 1216
17 1195
18 1195
19 1181
20 1159
21 1126
22 1123
23 1121
24 1095
25 1095
26 1070
27 1070
28 1070
29 1064
30 1063
31 1059
32 1059
33 1052
34 1052
35 1052
36 1045
37 1040
38 1035
39 1035
40 1035
41 1035
42 1035
43 1035
44 1035
45 1035
46 1035
47 1035
48 1035
49 1035
50 1035
51 1035
52 1035
53 1035
54 1035
55 1035
56 1035
57 1035
58 1035
59 1035
60 1035
61 1035
62 1035
63 1035
64 1035
65 1035
66 1035
67 1035
68 1035
69 1035
70 1035
71 1035
72 1035
73 1035
74 1035
75 1035
76 1035
77 1035
78 1035
79 1035
80 1035
81 1035
82 1035
83 1035
84 1035
85 1035
86 1035
87 1035
88 1035
89 1035
90 1035
91 1035
92 1035
93 1035
94 1035
95 1035
96 1035
97 1035
98 1035
99 1035
100 1035
101 1035
102 1035
103 1035
104 1035
105 1035
106 1035
107 1035
108 1035
109 1035
110 1035
111 1035
112 1035
113 1035
114 1035
115 1035
116 1035
117 1035
118 1035
119 1035
120 1035
121 1035
122 1035
123 1035
124 1035
125 1035
126 1035
127 1035
128 1035
129 1035
130 1035
131 1035
132 1035
133 1035
134 1035
135 1035
136 1035
137 1035
138 1035
139 1035
140 1035
141 1035
142 1035
143 1035
144 1035
145 1035
146 1035
147 1035
148 1035
149 1035
150 1035
151 1035
152 1035
153 1035
154 1035
155 1035
156 1035
157 1035
158 1035
159 1035
160 1035
161 1035
162 1035
163 1035
164 1035
165 1035
166 1035
167 1035
168 1035
169 1035
170 1035
171 1035
172 1035
173 1035
174 1035
175 1035
176 1035
177 1035
178 1035
179 1035
180 1035
181 1035
182 1035
183 1035
184 1035
185 1035
186 1035
187 1035
188 1035
189 1035
190 1035
191 1035
192 1035
193 1035
194 1035
195 1035
196 1035
197 1035
198 1035
199 1035
200 1035
201 1035
202 1035
203 1035
204 1035
205 1035
206 1035
207 1035
208 1035
209 1035
210 1035
211 1035
212 1035
213 1035
214 1035
215 1035
216 1035
217 1035
218 1035
219 1035
220 1035
221 1035
222 1035
223 1035
224 1035
225 1035
226 1035
227 1035
228 1035
229 1035
230 1035
231 1035
232 1035
233 1035
234 1035
235 1035
236 1035
237 1035
238 1035
239 1035
240 1035
241 1035
242 1035
243 1035
244 1035
245 1035
246 1035
247 1035
248 1035
249 1035
250 1035
251 1035
252 1035
253 1035
254 1035
255 1035
256 1035
257 1035
258 1035
259 1035
260 1035
261 1035
262 1035
263 1035
264 1035
265 1035
266 1035
267 1035
268 1035
269 1035
270 1035
271 1035
272 1035
273 1035
274 1035
275 1035
276 1035
277 1035
278 1035
279 1035
280 1035
281 1035
282 1035
283 1035
284 1035
285 1035
286 1035
287 1035
288 1035
289 1035
290 1035
291 1035
292 1035
293 1035
294 1035
295 1035
296 1035
297 1035
298 1035
299 1035
300 1035
301 1035
302 1035
303 1035
304 1035
305 1035
306 1035
307 1035
308 1035
309 1035
310 1035
311 1035
312 1035
313 1035
314 1035
315 1035
316 1035
317 1035
318 1035
319 1035
320 1035
321 1035
322 1035
323 1035
324 1035
325 1035
326 1035
327 1035
328 1035
329 1035
330 1035
331 1035
332 1035
333 1035
334 1035
335 1035
336 1035
337 1035
338 1035
339 1035
340 1035
341 1035
342 1035
343 1035
344 1035
345 1035
346 1035
347 1035
348 1035
349 1035
350 1035
351 1035
352 1035
353 1035
354 1035
355 1035
356 1035
357 1035
358 1035
359 1035
360 1035
361 1035
362 1035
363 1035
364 1035
365 1035
366 1035
367 1035
368 1035
369 1035
370 1035
371 1035
372 1035
373 1035
374 1035
375 1035
376 1035
377 1035
378 1035
379 1035
380 1035
381 1035
382 1035
383 1035
384 1035
385 1035
386 1035
387 1035
388 1035
389 1035
390 1035
391 1035
392 1035
393 1035
394 1035
395 1035
396 1035
397 1035
398 1035
399 1035
400 1035
401 1035
402 1035
403 1035
404 1035
405 1035
406 1035
407 1035
408 1035
409 1035
410 1035
411 1035
412 1035
413 1035
414 1035
415 1035
416 1035
417 1035
418 1035
419 1035
420 1035
421 1035
422 1035
423 1035
424 1035
425 1035
426 1035
427 1035
428 1035
429 1035
430 1035
431 1035
432 1035
433 1035
434 1035
435 1035
436 1035
437 1035
438 1035
439 1035
440 1035
441 1035
442 1035
443 1035
444 1035
445 1035
446 1035
447 1035
448 1035
449 1035
450 1035
451 1035
452 1035
453 1035
454 1035
455 1035
456 1035
457 1035
458 1035
459 1035
460 1035
461 1035
462 1035
463 1035
464 1035
465 1035
466 1035
467 1035
468 1035
469 1035
470 1035
471 1035
472 1035
473 1035
474 1035
475 1035
476 1035
477 1035
478 1035
479 1035
480 1035
481 1035
482 1035
483 1035
484 1035
485 1035
486 1035
487 1035
488 1035
489 1035
490 1035
491 1035
492 1035
493 1035
494 1035
495 1035
496 1035
497 1035
498 1035
499 1035
500 1035
501 1035
502 1035
503 1035
504 1035
505 1035
506 1035
507 1035
508 1035
509 1035
510 1035
511 1035
512 1035
513 1035
514 1035
515 1035
516 1035
517 1035
518 1035
519 1035
520 1035
521 1035
522 1035
523 1035
524 1035
525 1035
526 1035
527 1035
528 1035
529 1035
530 1035
531 1035
532 1035
533 1035
534 1035
535 1035
536 1035
537 1035
538 1035
539 1035
540 1035
541 1035
542 1035
543 1035
544 1035
545 1035
546 1035
547 1035
548 1035
549 1035
550 1035
551 1035
552 1035
553 1035
554 1035
555 1035
556 1035
557 1035
558 1035
559 1035
560 1035
561 1035
562 1035
563 1035
564 1035
565 1035
566 1035
567 1035
568 1035
569 1035
570 1035
571 1035
572 1035
573 1035
574 1035
575 1035
576 1035
577 1035
578 1035
579 1035
580 1035
581 1035
582 1035
583 1035
584 1035
585 1035
586 1035
587 1035
588 1035
589 1035
590 1035
591 1035
592 1035
593 1035
594 1035
595 1035
596 1035
597 1035
598 1035
599 1035
600 1035
601 1035
602 1035
603 1035
604 1035
605 1035
606 1035
607 1035
608 1035
609 1035
610 1035
611 1035
612 1035
613 1035
614 1035
615 1035
616 1035
617 1035
618 1035
619 1035
620 1035
621 1035
622 1035
623 1035
624 1035
625 1035
626 1035
627 1035
628 1035
629 1035
630 1035
631 1035
632 1035
633 1035
634 1035
635 1035
636 1035
637 1035
638 1035
639 1035
640 1035
641 1035
642 1035
643 1035
644 1035
645 1035
646 1035
647 1035
648 1035
649 1035
650 1035
651 1035
652 1035
653 1035
654 1035
655 1035
656 1035
657 1035
658 1035
659 1035
660 1035
661 1035
662 1035
663 1035
664 1035
665 1035
666 1035
667 1035
668 1035
669 1035
670 1035
671 1035
672 1035
673 1035
674 1035
675 1035
676 1035
677 1035
678 1035
679 1035
680 1035
681 1035
682 1035
683 1035
684 1035
685 1035
686 1035
687 1035
688 1035
689 1035
690 1035
691 1035
692 1035
693 1035
694 1035
695 1035
696 1035
697 1035
698 1035
699 1035
700 1035
701 1035
702 1035
703 1035
704 1035
705 1035
706 1035
707 1035
708 1035
709 1035
710 1035
711 1035
712 1035
713 1035
714 1035
715 1035
716 1035
717 1035
718 1035
719 1035
720 1035
721 1035
722 1035
723 1035
724 1035
725 1035
726 1035
727 1035
728 1035
729 1035
730 1035
731 1035
732 1035
733 1035
734 1035
735 1035
736 1035
737 1035
738 1035
739 1035
740 1035
741 1035
742 1035
743 1035
744 1035
745 1035
746 1035
747 1035
748 1035
749 1035
750 1035
751 1035
752 1035
753 1035
754 1035
755 1035
756 1035
757 1035
758 1035
759 1035
760 1035
761 1035
762 1035
763 1035
764 1035
765 1035
766 1035
767 1035
768 1035
769 1035
770 1035
771 1035
772 1035
773 1035
774 1035
775 1035
776 1035
777 1035
778 1035
779 1035
780 1035
781 1035
782 1035
783 1035
784 1035
785 1035
786 1035
787 1035
788 1035
789 1035
790 1035
791 1035
792 1035
793 1035
794 1035
795 1035
796 1035
797 1035
798 1035
799 1035
800 1035
801 1035
802 1035
803 1035
804 1035
805 1035
806 1035
807 1035
808 1035
809 1035
810 1035
811 1035
812 1035
813 1035
814 1035
815 1035
816 1035
817 1035
818 1035
819 1035
820 1035
821 1035
822 1035
823 1035
824 1035
825 1035
826 1035
827 1035
828 1035
829 1035
830 1035
831 1035
832 1035
833 1035
834 1035
835 1035
836 1035
837 1035
838 1035
839 1035
840 1035
841 1035
842 1035
843 1035
844 1035
845 1035
846 1035
847 1035
848 1035
849 1035
850 1035
851 1035
852 1035
853 1035
854 1035
855 1035
856 1035
857 1035
858 1035
859 1035
860 1035
861 1035
862 1035
863 1035
864 1035
865 1035
866 1035
867 1035
868 1035
869 1035
870 1035
871 1035
872 1035
873 1035
874 1035
875 1035
876 1035
877 1035
878 1035
879 1035
880 1035
881 1035
882 1035
883 1035
884 1035
885 1035
886 1035
887 1035
888 1035
889 1035
890 1035
891 1035
892 1035
893 1035
894 1035
895 1035
896 1035
897 1035
898 1035
899 1035
900 1035
901 1035
902 1035
903 1035
904 1035
905 1035
906 1035
907 1035
908 1035
909 1035
910 1035
911 1035
912 1035
913 1035
914 1035
915 1035
916 1035
917 1035
918 1035
919 1035
920 1035
921 1035
922 1035
923 1035
924 1035
925 1035
926 1035
927 1035
928 1035
929 1035
930 1035
931 1035
932 1035
933 1035
934 1035
935 1035
936 1035
937 1035
938 1035
939 1035
940 1035
941 1035
942 1035
943 1035
944 1035
945 1035
946 1035
947 1035
948 1035
949 1035
950 1035
951 1035
952 1035
953 1035
954 1035
955 1035
956 1035
957 1035
958 1035
959 1035
960 1035
961 1035
962 1035
963 1035
964 1035
965 1035
966 1035
967 1035
968 1035
969 1035
970 1035
971 1035
972 1035
973 1035
974 1035
975 1035
976 1035
977 1035
978 1035
979 1035
980 1035
981 1035
982 1035
983 1035
984 1035
985 1035
986 1035
987 1035
988 1035
989 1035
990 1035
991 1035
992 1035
993 1035
994 1035
995 1035
996 1035
997 1035
998 1035
999 1035
Best: [[31,17,2,13],
       [28,25],
       [21,16,4,3,5,12,9],
       [27,8,22,32,18,30,11,26,6],
       [15,23,10,19,29,24,7,20,14]], fitness: 1035
